[runlim] version:		2.0.0rc12
[runlim] host:			ap-Precision-7550
[runlim] time limit:		311040000 seconds
[runlim] real time limit:	600 seconds
[runlim] space limit:		14000 MB
[runlim] argv[0]:		python3
[runlim] argv[1]:		-u
[runlim] argv[2]:		mip.py
[runlim] argv[3]:		graph04
[runlim] start:			Thu Mar 26 06:05:19 2026
[runlim] child:			32571
--- Building MIP model for 400 variables ---
--- Solving with CPLEX MIP ---
Version identifier: 22.1.1.0 | 2022-11-28 | 9160aff4d
CPXPARAM_Read_DataCheck                          1
CPXPARAM_MIP_Tolerances_MIPGap                   0
Legacy callback                                  i
Tried aggregator 1 time.
MIP Presolve eliminated 845671 rows and 0 columns.
MIP Presolve modified 50602 coefficients.
Reduced MIP has 58434 rows, 14860 columns, and 961261 nonzeros.
Reduced MIP has 14860 binaries, 0 generals, 0 SOSs, and 0 indicators.
Presolve time = 5.18 sec. (7248.38 ticks)
[runlim] sample:		15.75 time, 10.01 real, 353 MB, 2.26 load
Probing fixed 283 vars, tightened 0 bounds.
Probing changed sense of 7370 constraints.
Probing time = 0.13 sec. (56.23 ticks)
Tried aggregator 2 times.
MIP Presolve eliminated 13311 rows and 7569 columns.
MIP Presolve modified 15781 coefficients.
Aggregator did 13 substitutions.
Reduced MIP has 44986 rows, 7278 columns, and 966076 nonzeros.
Reduced MIP has 7278 binaries, 0 generals, 0 SOSs, and 0 indicators.
Presolve time = 2.66 sec. (4696.63 ticks)
Probing fixed 58 vars, tightened 0 bounds.
Probing changed sense of 4 constraints.
Probing time = 0.05 sec. (25.75 ticks)
Tried aggregator 1 time.
Detecting symmetries...
MIP Presolve eliminated 56 rows and 62 columns.
MIP Presolve modified 2997 coefficients.
Reduced MIP has 44730 rows, 7216 columns, and 949662 nonzeros.
Reduced MIP has 7216 binaries, 0 generals, 0 SOSs, and 0 indicators.
Presolve time = 0.95 sec. (1392.78 ticks)
Probing time = 0.02 sec. (4.81 ticks)
Clique table members: 52023.
MIP emphasis: balance optimality and feasibility.
MIP search method: dynamic search.
Parallel mode: deterministic, using up to 12 threads.
[runlim] sample:		64.54 time, 20.01 real, 716 MB, 2.47 load
Root relaxation solution time = 13.55 sec. (6077.40 ticks)

        Nodes                                         Cuts/
   Node  Left     Objective  IInf  Best Integer    Best Bound    ItCnt     Gap

      0     0       14.0000  1610                     14.0000       16         
[runlim] sample:		103.72 time, 30.01 real, 766 MB, 2.77 load
[runlim] sample:		133.72 time, 40.01 real, 911 MB, 2.80 load
[runlim] sample:		163.72 time, 50.01 real, 955 MB, 2.91 load
[runlim] sample:		193.72 time, 60.01 real, 956 MB, 2.92 load
[runlim] sample:		223.71 time, 70.01 real, 956 MB, 3.01 load
[runlim] sample:		253.71 time, 80.01 real, 994 MB, 3.09 load
[runlim] sample:		283.70 time, 90.01 real, 1011 MB, 3.15 load
[runlim] sample:		313.69 time, 100.01 real, 1011 MB, 3.20 load
[runlim] sample:		343.69 time, 110.01 real, 1023 MB, 3.17 load
[runlim] sample:		373.68 time, 120.01 real, 1040 MB, 3.15 load
[runlim] sample:		403.67 time, 130.01 real, 1042 MB, 3.20 load
[runlim] sample:		433.67 time, 140.01 real, 1043 MB, 3.17 load
[runlim] sample:		463.66 time, 150.01 real, 1043 MB, 3.21 load
[runlim] sample:		493.66 time, 160.01 real, 1071 MB, 3.18 load
[runlim] sample:		523.65 time, 170.01 real, 1052 MB, 3.15 load
[runlim] sample:		553.65 time, 180.01 real, 1102 MB, 3.13 load
[runlim] sample:		583.64 time, 190.01 real, 1102 MB, 3.11 load
[runlim] sample:		613.64 time, 200.01 real, 1102 MB, 3.09 load
[runlim] sample:		643.63 time, 210.01 real, 1102 MB, 3.08 load
[runlim] sample:		673.63 time, 220.01 real, 1102 MB, 3.06 load
[runlim] sample:		703.63 time, 230.01 real, 1102 MB, 3.13 load
[runlim] sample:		733.62 time, 240.01 real, 1102 MB, 3.11 load
[runlim] sample:		763.62 time, 250.01 real, 1102 MB, 3.18 load
[runlim] sample:		793.61 time, 260.01 real, 1102 MB, 3.22 load
[runlim] sample:		823.60 time, 270.01 real, 1102 MB, 3.19 load
[runlim] sample:		853.59 time, 280.01 real, 1102 MB, 3.24 load
[runlim] sample:		883.58 time, 290.01 real, 1102 MB, 3.20 load
[runlim] sample:		913.58 time, 300.01 real, 1102 MB, 3.17 load
[runlim] sample:		943.58 time, 310.01 real, 1102 MB, 3.14 load
[runlim] sample:		973.57 time, 320.01 real, 1103 MB, 3.12 load
[runlim] sample:		1003.57 time, 330.01 real, 1103 MB, 3.10 load
[runlim] sample:		1033.56 time, 340.01 real, 1103 MB, 3.09 load
[runlim] sample:		1063.56 time, 350.01 real, 1103 MB, 3.07 load
[runlim] sample:		1093.56 time, 360.01 real, 1103 MB, 3.06 load
[runlim] sample:		1123.55 time, 370.01 real, 1103 MB, 3.05 load
[runlim] sample:		1153.55 time, 380.01 real, 1103 MB, 3.04 load
[runlim] sample:		1183.54 time, 390.01 real, 1103 MB, 3.04 load
[runlim] sample:		1213.54 time, 400.01 real, 1104 MB, 3.03 load
[runlim] sample:		1243.53 time, 410.01 real, 1104 MB, 3.02 load
[runlim] sample:		1273.52 time, 420.01 real, 1104 MB, 3.02 load
[runlim] sample:		1303.52 time, 430.01 real, 1104 MB, 3.02 load
[runlim] sample:		1333.52 time, 440.01 real, 1083 MB, 3.09 load
[runlim] sample:		1363.51 time, 450.01 real, 1083 MB, 3.07 load
[runlim] sample:		1393.51 time, 460.01 real, 1083 MB, 3.06 load
[runlim] sample:		1423.50 time, 470.01 real, 1083 MB, 3.05 load
[runlim] sample:		1450.98 time, 480.01 real, 1083 MB, 3.04 load
[runlim] sample:		1470.97 time, 490.01 real, 1083 MB, 2.88 load
[runlim] sample:		1490.97 time, 500.01 real, 1084 MB, 2.75 load
[runlim] sample:		1510.96 time, 510.01 real, 1084 MB, 2.71 load
[runlim] sample:		1530.95 time, 520.01 real, 1084 MB, 2.68 load
[runlim] sample:		1550.95 time, 530.01 real, 1084 MB, 2.73 load
[runlim] sample:		1570.94 time, 540.01 real, 1084 MB, 2.62 load
[runlim] sample:		1590.94 time, 550.01 real, 1084 MB, 2.52 load
[runlim] sample:		1610.93 time, 560.01 real, 1084 MB, 2.44 load
[runlim] sample:		1630.93 time, 570.01 real, 1084 MB, 2.37 load
[runlim] sample:		1650.92 time, 580.01 real, 1084 MB, 2.32 load
[runlim] sample:		1670.92 time, 590.01 real, 1084 MB, 2.27 load
[runlim] sample:		1690.91 time, 600.01 real, 1084 MB, 2.23 load
[runlim] end:			Thu Mar 26 06:15:20 2026
[runlim] status:		out of time
[runlim] result:		2
[runlim] children:		1
[runlim] processes:		2
[runlim] real:			601.06 seconds
[runlim] time:			1690.91 seconds
[runlim] space:			1104 MB
[runlim] load:			3.24 maximum
[runlim] samples:		6000
